10
10
1010005
0
0
90 83 91 87 91 84 89 89 86 81 
1
0
14 12 18 22 15 15 20 23 22 22 
2
0
38 41 40 43 37 37 32 39 41 41 
3
0
40 38 37 40 44 45 41 43 43 38 
4
0
3 5 9 7 10 8 7 6 5 7 
5
0
21 14 18 13 11 17 15 19 15 20 
6
0
33 33 36 33 31 26 28 31 32 31 
7
0
9 12 14 14 12 10 17 18 12 15 
8
0
45 52 47 43 41 48 48 48 51 50 
9
0
65 67 68 67 68 60 66 62 57 62 
